res_glpk/log/3_4.log
GLPSOL--GLPK LP/MIP Solver 5.0
Parameter(s) specified in the command line:
 --lp ../modeles/3_4.lp --log 3_4.log
Reading problem data from '../modeles/3_4.lp'...
25 rows, 30 columns, 93 non-zeros
12 integer variables, all of which are binary
64 lines were read
GLPK Integer Optimizer 5.0
25 rows, 30 columns, 93 non-zeros
12 integer variables, all of which are binary
Preprocessing...
6 constraint coefficient(s) were reduced
22 rows, 27 columns, 78 non-zeros
12 integer variables, all of which are binary
Scaling...
 A: min|aij| =  2.500e-01  max|aij| =  4.000e+00  ratio =  1.600e+01
Problem data seem to be well scaled
Constructing initial basis...
Size of triangular part is 22
Solving LP relaxation...
GLPK Simplex Optimizer 5.0
22 rows, 27 columns, 78 non-zeros
      0: obj =   6.000000000e+00 inf =   1.550e+01 (7)
     16: obj =  -1.000000000e+00 inf =   0.000e+00 (0)
OPTIMAL LP SOLUTION FOUND
Integer optimization begins...
Long-step dual simplex will be used
+    16: mip =     not found yet >=              -inf        (1; 0)
+    20: >>>>>  -1.000000000e+00 >=  -1.000000000e+00   0.0% (4; 0)
+    20: mip =  -1.000000000e+00 >=     tree is empty   0.0% (0; 7)
INTEGER OPTIMAL SOLUTION FOUND
Time used:   0.0 secs
Memory used: 0.1 Mb (94819 bytes)
